p tw 25 75
0 1
0 8
0 2
0 4
0 22
0 17
1 4
1 19
1 12
1 7
1 23
1 8
2 3
2 7
2 12
2 23
3 18
3 19
3 11
3 10
3 16
3 22
3 21
3 12
4 17
4 16
5 6
5 16
5 17
5 15
5 11
5 14
5 8
6 13
6 19
6 14
6 16
6 24
7 8
7 11
7 10
7 22
7 17
8 12
8 9
8 18
8 20
8 22
9 10
10 12
10 15
10 23
11 18
11 22
11 20
12 14
12 21
12 20
13 19
13 17
14 18
14 19
14 24
15 16
15 19
15 20
16 19
17 20
17 18
18 19
18 23
19 21
20 24
21 22
22 24
